problems/csplib-prob015/SchursLemma-models/noch/O2/lingeling/model_1_3-6-12-solution000001.eprime-solution
language ESSENCE' 1.0

letting boxes_PartitionAsSet_ExplicitR5_ExplicitVarSizeWithMarker_Marker be [1, 1, 1, 1, 3, 5; int(1..6)]
letting boxes_PartitionAsSet_ExplicitR5_ExplicitVarSizeWithMarker_Values be
        [[1, 1, 1, 1, 1, 1, 1, 1, 1, 1, 1, 1; int(1..12)], [2, 1, 1, 1, 1, 1, 1, 1, 1, 1, 1, 1; int(1..12)],
         [3, 1, 1, 1, 1, 1, 1, 1, 1, 1, 1, 1; int(1..12)], [10, 1, 1, 1, 1, 1, 1, 1, 1, 1, 1, 1; int(1..12)],
         [4, 5, 7, 1, 1, 1, 1, 1, 1, 1, 1, 1; int(1..12)],
         [6, 8, 9, 11, 12, 1, 1, 1, 1, 1, 1, 1; int(1..12)]; int(1..6)]
