problems/csplib-prob015/SchursLemma-models/noch/O2/lingeling/model_1_3-6-12-solution000001.solution
language Essence 1.3

letting boxes be partition({1}, {2}, {3}, {4, 5, 7}, {6, 8, 9, 11, 12}, {10})
